0000000000000000
0000000000000000
0001111100000000
0000000110000000
0000000011000000
0000000011100000
0000000110110000
0000001100011000
0000011000001100
0000110000000110
0001100000000011
0000000000000000
0000000000000000
0000000000000000
0000000000000000
0000000000000000